&CONTROL
    calculation = 'relax'
    pseudo_dir = './pseudo/'
/
&SYSTEM
    ibrav = 0
    nat = 3
    ntyp = 2
    ecutwfc = 30.0
    ecutrho = 240.0
/
&ELECTRONS
    mixing_beta = 0.7
/
ATOMIC_SPECIES
  H  1.00 H.pbe-rrkjus.UPF
  O 16.00 O.pbe-rrkjus.UPF













