&CONTROL
   calculation      = 'relax'
   pseudo_dir       = './pseudo/'
/
&SYSTEM
   ibrav            = 0
   nat              = 3
   ntyp             = 2
   ecutwfc          = 30.0
   ecutrho          = 240.0
/
&ELECTRONS
   mixing_beta      = 0.7
/
&IONS
/
&CELL
/

ATOMIC_SPECIES
O 15.999 O.pbe-rrkjus.UPF
H 1.008 H.pbe-rrkjus.UPF

K_POINTS gamma

CELL_PARAMETERS angstrom
10.00000000000000 0.00000000000000 0.00000000000000
0.00000000000000 10.00000000000000 0.00000000000000
0.00000000000000 0.00000000000000 10.00000000000000

ATOMIC_POSITIONS angstrom
O 5.0000000000 5.0000000000 5.0000000000 
H 5.7000000000 5.0000000000 5.0000000000 
H 4.3000000000 5.0000000000 5.0000000000 

