BEGIN
BEGIN_PATH_INPUT
&PATH
    ci_scheme      = "auto"
    ds             =  1.0
    first_last_opt = .FALSE.
    k_max          =  0.61685028
    k_min          =  0.41123352
    nstep_path     =  250
    num_of_images  =  6
    opt_scheme     = "broyden"
    path_thr       =  0.1
    string_method  = "neb"
    use_freezing   = .FALSE.
/
END_PATH_INPUT

BEGIN_ENGINE_INPUT
&CONTROL
    pseudo_dir = "C:\Users\User\.nanolabo\.pseudopot"
    verbosity  = "low"
/

&SYSTEM
    a                         =  13.1337185
    b                         =  13.6537423
    c                         =  28.7501618
    cosab                     = -0.61543451
    degauss                   =  0.01
    ecutrho                   =  225.0
    ecutwfc                   =  25.0
    ibrav                     =  12
    nat                       =  134
    nspin                     =  2
    ntyp                      =  4
    occupations               = "smearing"
    smearing                  = "gaussian"
    starting_magnetization(1) =  0.0
    starting_magnetization(2) =  0.2
/

&ELECTRONS
    conv_thr         =  1.0e-4
    diagonalization  = "david"
    electron_maxstep =  200
    mixing_beta      =  0.1
    startingpot      = "atomic"
    startingwfc      = "atomic+random"
/

K_POINTS {gamma}

ATOMIC_SPECIES
O      15.99940  O.pbe-rrkjus.UPF
Cu     63.54600  Cu.pbe-n-van_ak.UPF
N      14.00674  N.pbe-rrkjus.UPF
H       1.00794  H.pbe-rrkjus.UPF

BEGIN_POSITIONS
FIRST_IMAGE
ATOMIC_POSITIONS {angstrom}
O       8.446003   3.467069  18.669333
O      -3.505523   6.155046  18.667041
Cu     -0.876346   1.600581  18.131008
Cu      2.318658   1.652228  18.196467
Cu     -3.064909   4.342481  18.194918
Cu      0.308369   4.289272  18.131169
O      10.596362   2.484344  17.660667
O      -1.351492   5.174386  17.662037
O      -0.630338   1.497455  16.084988
O       0.555090   4.187804  16.085218
Cu     10.852394   2.372425  15.673728
Cu      0.994911   2.379521  15.554340
Cu      8.745413   5.070118  15.555468
Cu     -1.096950   5.062628  15.674520
O       9.227818   3.243051  15.048844
O      -2.721697   5.932967  15.049472
O      11.148684   2.233472  13.714344  0 0 0
O      -0.802349   4.923902  13.714347  0 0 0
Cu      9.501732   3.112811  13.116173  0 0 0
Cu     -0.348590   3.112779  13.116139  0 0 0
Cu      7.400980   5.803313  13.116118  0 0 0
Cu     -2.449343   5.803283  13.116083  0 0 0
O       0.105197   1.301766  12.517910  0 0 0
O       1.287879   3.992191  12.517907  0 0 0
O       9.820184   2.963114  11.196440  0 0 0
O      -2.130853   5.653540  11.196437  0 0 0
Cu      0.423689   1.152021  10.598266  0 0 0
Cu      3.707084   1.151991  10.598232  0 0 0
Cu     -1.677066   3.842524  10.598209  0 0 0
Cu      1.606333   3.842494  10.598174  0 0 0
O      -1.223306   2.031403  10.000000  0 0 0
O      -0.040621   4.721834  10.000003  0 0 0
O       4.240671   8.846294  18.667655
O       0.693751   0.777538  18.669872
Cu     -5.076302   6.976375  18.128627
Cu     -1.883680   7.033679  18.194923
Cu     -7.269032   9.723450  18.196563
Cu     -3.894771   9.669413  18.129006
O       6.398164   7.863549  17.661271
O      -5.555587  10.554825  17.660618
O      -4.829077   6.878993  16.084153
O      -3.647709   9.568723  16.085023
Cu      6.653508   7.752164  15.673566
Cu     -3.204468   7.760643  15.554980
Cu      4.542128  10.450636  15.553963
Cu     -5.298452  10.443502  15.673506
O       5.029783   8.623305  15.049489
O       1.479785   0.552243  15.049060
O       6.947192   7.614328  13.714344  0 0 0
O      -5.003840  10.304760  13.714347  0 0 0
Cu      5.300239   8.493669  13.116173  0 0 0
Cu     -4.550082   8.493637  13.116139  0 0 0
Cu     11.602471   0.422455  13.116118  0 0 0
Cu      1.752151   0.422425  13.116083  0 0 0
O      -4.096295   6.682622  12.517910  0 0 0
O      -2.913613   9.373049  12.517907  0 0 0
O       5.618691   8.343972  11.196440  0 0 0
O       2.070638   0.272682  11.196437  0 0 0
Cu     -3.777805   6.532880  10.598266  0 0 0
Cu     -0.494408   6.532849  10.598232  0 0 0
Cu     -5.878557   9.223382  10.598209  0 0 0
Cu     -2.595160   9.223352  10.598174  0 0 0
O      -5.424798   7.412261  10.000000  0 0 0
O      -4.242114  10.102691  10.000003  0 0 0
O       1.879784   3.467420  18.668263
O       3.061736   6.155133  18.665801
Cu      5.693157   1.600672  18.129679
Cu      8.883539   1.652991  18.195197
Cu      3.504077   4.341965  18.195618
Cu      6.876921   4.288897  18.129914
O       4.032188   2.483963  17.660767
O       5.217584   5.174097  17.661861
O       5.937842   1.497532  16.085700
O       7.121834   4.186783  16.085971
Cu      4.288040   2.372883  15.673428
Cu      7.561903   2.379438  15.555308
Cu      2.179298   5.070642  15.554581
Cu      5.471470   5.062149  15.673738
O       2.662773   3.242810  15.049217
O       3.847043   5.932980  15.049506
O       4.581825   2.233472  13.714344  0 0 0
O       5.764510   4.923902  13.714347  0 0 0
Cu      2.934873   3.112811  13.116173  0 0 0
Cu      6.218269   3.112779  13.116139  0 0 0
Cu      0.834121   5.803313  13.116118  0 0 0
Cu      4.117518   5.803283  13.116083  0 0 0
O       6.672056   1.301766  12.517910  0 0 0
O       7.854739   3.992191  12.517907  0 0 0
O       3.253325   2.963114  11.196440  0 0 0
O       4.436007   5.653540  11.196437  0 0 0
Cu      6.990546   1.152021  10.598266  0 0 0
Cu     10.273943   1.151991  10.598232  0 0 0
Cu      4.889795   3.842524  10.598209  0 0 0
Cu      8.173192   3.842494  10.598174  0 0 0
O       5.343553   2.031403  10.000000  0 0 0
O       6.526238   4.721834  10.000003  0 0 0
O      -2.325494   8.846498  18.668642
O       7.260823   0.777712  18.670486
Cu      1.489821   6.978016  18.128780
Cu      4.684637   7.032706  18.195731
Cu     -0.703556   9.724707  18.195127
Cu      2.669817   9.670689  18.129759
O      -0.169896   7.864964  17.660710
O       1.009314  10.556340  17.659832
O       1.737756   6.879643  16.083347
O       2.917604   9.568368  16.084207
Cu      0.086274   7.753773  15.673879
Cu      3.361880   7.760741  15.553751
Cu     -2.023236  10.450903  15.555349
Cu      1.267028  10.444048  15.673443
O      -1.537658   8.624307  15.049562
O       8.046126   0.553464  15.048754
O       0.380333   7.614328  13.714344  0 0 0
O       1.563018  10.304760  13.714347  0 0 0
Cu     -1.266618   8.493669  13.116173  0 0 0
Cu      2.016777   8.493637  13.116139  0 0 0
Cu      5.035613   0.422455  13.116118  0 0 0
Cu      8.319010   0.422425  13.116083  0 0 0
O       2.470564   6.682622  12.517910  0 0 0
O       3.653246   9.373049  12.517907  0 0 0
O      -0.948166   8.343972  11.196440  0 0 0
O       8.637499   0.272682  11.196437  0 0 0
Cu      2.789055   6.532880  10.598266  0 0 0
Cu      6.072451   6.532849  10.598232  0 0 0
Cu      0.688301   9.223382  10.598209  0 0 0
Cu      3.971700   9.223352  10.598174  0 0 0
O       1.142061   7.412261  10.000000  0 0 0
O       2.324746  10.102691  10.000003  0 0 0
N       1.573425   7.012653  19.963386
H       2.454175   7.012653  20.471886
H       0.692675   7.012653  20.471886
N       2.755322   4.773931  19.559776
O       1.708155   4.991843  20.065986
H       0.039213   8.151184  18.761545
INTERMEDIATE_IMAGE
ATOMIC_POSITIONS {angstrom}
O       8.449040   3.470106  18.672370
O      -3.502486   6.158083  18.670078
Cu     -0.873309   1.603618  18.134045
Cu      2.321695   1.655265  18.199504
Cu     -3.061872   4.345518  18.197955
Cu      0.311406   4.292309  18.134206
O      10.599399   2.487381  17.663704
O      -1.348455   5.177423  17.665074
O      -0.627301   1.500492  16.088025
O       0.558127   4.190841  16.088255
Cu     10.855431   2.375462  15.676765
Cu      0.997948   2.382558  15.557377
Cu      8.748450   5.073155  15.558505
Cu     -1.093913   5.065665  15.677557
O       9.230855   3.246088  15.051881
O      -2.718660   5.936004  15.052509
O      11.148684   2.233472  13.714344
O      -0.802349   4.923902  13.714347
Cu      9.501732   3.112811  13.116173
Cu     -0.348590   3.112779  13.116139
Cu      7.400980   5.803313  13.116118
Cu     -2.449343   5.803283  13.116083
O       0.105197   1.301766  12.517910
O       1.287879   3.992191  12.517907
O       9.820184   2.963114  11.196440
O      -2.130853   5.653540  11.196437
Cu      0.423689   1.152021  10.598266
Cu      3.707084   1.151991  10.598232
Cu     -1.677066   3.842524  10.598209
Cu      1.606333   3.842494  10.598174
O      -1.223306   2.031403  10.000000
O      -0.040621   4.721834  10.000003
O       4.243708   8.849331  18.670692
O       0.696788   0.780575  18.672909
Cu     -5.073265   6.979412  18.131664
Cu     -1.880643   7.036716  18.197960
Cu     -7.265995   9.726487  18.199600
Cu     -3.891734   9.672450  18.132043
O       6.401201   7.866586  17.664308
O      -5.552550  10.557862  17.663655
O      -4.826040   6.882030  16.087190
O      -3.644672   9.571760  16.088060
Cu      6.656545   7.755201  15.676603
Cu     -3.201431   7.763680  15.558017
Cu      4.545165  10.453673  15.557000
Cu     -5.295415  10.446539  15.676543
O       5.032820   8.626342  15.052526
O       1.482822   0.555280  15.052097
O       6.947192   7.614328  13.714344
O      -5.003840  10.304760  13.714347
Cu      5.300239   8.493669  13.116173
Cu     -4.550082   8.493637  13.116139
Cu     11.602471   0.422455  13.116118
Cu      1.752151   0.422425  13.116083
O      -4.096295   6.682622  12.517910
O      -2.913613   9.373049  12.517907
O       5.618691   8.343972  11.196440
O       2.070638   0.272682  11.196437
Cu     -3.777805   6.532880  10.598266
Cu     -0.494408   6.532849  10.598232
Cu     -5.878557   9.223382  10.598209
Cu     -2.595160   9.223352  10.598174
O      -5.424798   7.412261  10.000000
O      -4.242114  10.102691  10.000003
O       1.882821   3.470457  18.671300
O       3.064773   6.158170  18.668838
Cu      5.696194   1.603709  18.132716
Cu      8.886576   1.656028  18.198234
Cu      3.507114   4.345002  18.198655
Cu      6.879958   4.291934  18.132951
O       4.035225   2.487000  17.663804
O       5.220621   5.177134  17.664898
O       5.940879   1.500569  16.088737
O       7.124871   4.189820  16.089008
Cu      4.291077   2.375920  15.676465
Cu      7.564940   2.382475  15.558345
Cu      2.182335   5.073679  15.557618
Cu      5.474507   5.065186  15.676775
O       2.665810   3.245847  15.052254
O       3.850080   5.936017  15.052543
O       4.581825   2.233472  13.714344
O       5.764510   4.923902  13.714347
Cu      2.934873   3.112811  13.116173
Cu      6.218269   3.112779  13.116139
Cu      0.834121   5.803313  13.116118
Cu      4.117518   5.803283  13.116083
O       6.672056   1.301766  12.517910
O       7.854739   3.992191  12.517907
O       3.253325   2.963114  11.196440
O       4.436007   5.653540  11.196437
Cu      6.990546   1.152021  10.598266
Cu     10.273943   1.151991  10.598232
Cu      4.889795   3.842524  10.598209
Cu      8.173192   3.842494  10.598174
O       5.343553   2.031403  10.000000
O       6.526238   4.721834  10.000003
O      -2.322457   8.849535  18.671679
O       7.263860   0.780749  18.673523
Cu      1.492858   6.981053  18.131817
Cu      4.687674   7.035743  18.198768
Cu     -0.700519   9.727744  18.198164
Cu      2.672854   9.673726  18.132796
O      -0.166859   7.868001  17.663747
O       1.012351  10.559377  17.662869
O       1.740793   6.882680  16.086384
O       2.920641   9.571405  16.087244
Cu      0.089311   7.756810  15.676916
Cu      3.364917   7.763778  15.556788
Cu     -2.020199  10.453940  15.558386
Cu      1.270065  10.447085  15.676480
O      -1.534621   8.627344  15.052599
O       8.049163   0.556501  15.051791
O       0.380333   7.614328  13.714344
O       1.563018  10.304760  13.714347
Cu     -1.266618   8.493669  13.116173
Cu      2.016777   8.493637  13.116139
Cu      5.035613   0.422455  13.116118
Cu      8.319010   0.422425  13.116083
O       2.470564   6.682622  12.517910
O       3.653246   9.373049  12.517907
O      -0.948166   8.343972  11.196440
O       8.637499   0.272682  11.196437
Cu      2.789055   6.532880  10.598266
Cu      6.072451   6.532849  10.598232
Cu      0.688301   9.223382  10.598209
Cu      3.971700   9.223352  10.598174
O       1.142061   7.412261  10.000000
O       2.324746  10.102691  10.000003
N       1.859728   6.546411  19.790238
H       2.591351   6.818134  20.480133
H       1.120207   6.644839  20.315437
N       2.551935   5.118357  19.739055
O       1.751070   4.257239  20.291309
H       0.038418   8.140059  18.759893
INTERMEDIATE_IMAGE
ATOMIC_POSITIONS {angstrom}
O       8.446684   3.467750  18.670014
O      -3.504842   6.155727  18.667722
Cu     -0.875665   1.601262  18.131689
Cu      2.319339   1.652909  18.197148
Cu     -3.064228   4.343162  18.195599
Cu      0.309050   4.289953  18.131850
O      10.597043   2.485025  17.661348
O      -1.350811   5.175067  17.662718
O      -0.629657   1.498136  16.085669
O       0.555771   4.188485  16.085899
Cu     10.853075   2.373106  15.674409
Cu      0.995592   2.380202  15.555021
Cu      8.746094   5.070799  15.556149
Cu     -1.096269   5.063309  15.675201
O       9.228499   3.243732  15.049525
O      -2.721016   5.933648  15.050153
O      11.148684   2.233472  13.714344
O      -0.802349   4.923902  13.714347
Cu      9.501732   3.112811  13.116173
Cu     -0.348590   3.112779  13.116139
Cu      7.400980   5.803313  13.116118
Cu     -2.449343   5.803283  13.116083
O       0.105197   1.301766  12.517910
O       1.287879   3.992191  12.517907
O       9.820184   2.963114  11.196440
O      -2.130853   5.653540  11.196437
Cu      0.423689   1.152021  10.598266
Cu      3.707084   1.151991  10.598232
Cu     -1.677066   3.842524  10.598209
Cu      1.606333   3.842494  10.598174
O      -1.223306   2.031403  10.000000
O      -0.040621   4.721834  10.000003
O       4.241353   8.846975  18.668336
O       0.694432   0.778219  18.670553
Cu     -5.075621   6.977056  18.129308
Cu     -1.882999   7.034360  18.195604
Cu     -7.268351   9.724131  18.197244
Cu     -3.894090   9.670094  18.129687
O       6.398846   7.864230  17.661952
O      -5.554905  10.555506  17.661299
O      -4.828395   6.879674  16.084834
O      -3.647028   9.569404  16.085704
Cu      6.654189   7.752845  15.674247
Cu     -3.203787   7.761324  15.555661
Cu      4.542809  10.451317  15.554644
Cu     -5.297771  10.444183  15.674187
O       5.030464   8.623986  15.050170
O       1.480466   0.552924  15.049741
O       6.947192   7.614328  13.714344
O      -5.003840  10.304760  13.714347
Cu      5.300239   8.493669  13.116173
Cu     -4.550082   8.493637  13.116139
Cu     11.602471   0.422455  13.116118
Cu      1.752151   0.422425  13.116083
O      -4.096295   6.682622  12.517910
O      -2.913613   9.373049  12.517907
O       5.618691   8.343972  11.196440
O       2.070638   0.272682  11.196437
Cu     -3.777805   6.532880  10.598266
Cu     -0.494408   6.532849  10.598232
Cu     -5.878557   9.223382  10.598209
Cu     -2.595160   9.223352  10.598174
O      -5.424798   7.412261  10.000000
O      -4.242114  10.102691  10.000003
O       1.880465   3.468101  18.668944
O       3.062417   6.155814  18.666482
Cu      5.693838   1.601353  18.130360
Cu      8.884220   1.653672  18.195878
Cu      3.504758   4.342646  18.196299
Cu      6.877602   4.289578  18.130595
O       4.032869   2.484644  17.661448
O       5.218265   5.174778  17.662542
O       5.938523   1.498213  16.086381
O       7.122515   4.187464  16.086652
Cu      4.288721   2.373564  15.674109
Cu      7.562584   2.380119  15.555989
Cu      2.179979   5.071323  15.555262
Cu      5.472151   5.062830  15.674419
O       2.663454   3.243491  15.049898
O       3.847724   5.933661  15.050187
O       4.581825   2.233472  13.714344
O       5.764510   4.923902  13.714347
Cu      2.934873   3.112811  13.116173
Cu      6.218269   3.112779  13.116139
Cu      0.834121   5.803313  13.116118
Cu      4.117518   5.803283  13.116083
O       6.672056   1.301766  12.517910
O       7.854739   3.992191  12.517907
O       3.253325   2.963114  11.196440
O       4.436007   5.653540  11.196437
Cu      6.990546   1.152021  10.598266
Cu     10.273943   1.151991  10.598232
Cu      4.889795   3.842524  10.598209
Cu      8.173192   3.842494  10.598174
O       5.343553   2.031403  10.000000
O       6.526238   4.721834  10.000003
O      -2.324813   8.847179  18.669323
O       7.261504   0.778393  18.671167
Cu      1.490502   6.978697  18.129461
Cu      4.685318   7.033387  18.196412
Cu     -0.702875   9.725388  18.195808
Cu      2.670498   9.671370  18.130440
O      -0.169215   7.865645  17.661391
O       1.009996  10.557022  17.660513
O       1.738437   6.880324  16.084028
O       2.918285   9.569049  16.084888
Cu      0.086955   7.754454  15.674560
Cu      3.362561   7.761422  15.554432
Cu     -2.022555  10.451584  15.556030
Cu      1.267709  10.444730  15.674124
O      -1.536977   8.624988  15.050243
O       8.046807   0.554145  15.049435
O       0.380333   7.614328  13.714344
O       1.563018  10.304760  13.714347
Cu     -1.266618   8.493669  13.116173
Cu      2.016777   8.493637  13.116139
Cu      5.035613   0.422455  13.116118
Cu      8.319010   0.422425  13.116083
O       2.470564   6.682622  12.517910
O       3.653246   9.373049  12.517907
O      -0.948166   8.343972  11.196440
O       8.637499   0.272682  11.196437
Cu      2.789055   6.532880  10.598266
Cu      6.072451   6.532849  10.598232
Cu      0.688301   9.223382  10.598209
Cu      3.971700   9.223352  10.598174
O       1.142061   7.412261  10.000000
O       2.324746  10.102691  10.000003
N       1.715796   6.778601  19.875939
H       3.428276   5.579705  20.510377
H       1.929246   5.493023  20.427996
N       2.152349   5.706111  20.401886
O       2.626386   4.298747  20.117694
H       0.012080   8.049094  18.728194
INTERMEDIATE_IMAGE
ATOMIC_POSITIONS {angstrom}
O       8.446222   3.467288  18.669552
O      -3.505304   6.155265  18.667260
Cu     -0.876127   1.600800  18.131227
Cu      2.318877   1.652447  18.196686
Cu     -3.064690   4.342700  18.195137
Cu      0.308588   4.289491  18.131388
O      10.596581   2.484563  17.660886
O      -1.351273   5.174605  17.662256
O      -0.630119   1.497674  16.085207
O       0.555309   4.188023  16.085437
Cu     10.852613   2.372644  15.673947
Cu      0.995130   2.379740  15.554559
Cu      8.745632   5.070337  15.555687
Cu     -1.096731   5.062847  15.674739
O       9.228037   3.243270  15.049063
O      -2.721478   5.933186  15.049691
O      11.148684   2.233472  13.714344
O      -0.802349   4.923902  13.714347
Cu      9.501732   3.112811  13.116173
Cu     -0.348590   3.112779  13.116139
Cu      7.400980   5.803313  13.116118
Cu     -2.449343   5.803283  13.116083
O       0.105197   1.301766  12.517910
O       1.287879   3.992191  12.517907
O       9.820184   2.963114  11.196440
O      -2.130853   5.653540  11.196437
Cu      0.423689   1.152021  10.598266
Cu      3.707084   1.151991  10.598232
Cu     -1.677066   3.842524  10.598209
Cu      1.606333   3.842494  10.598174
O      -1.223306   2.031403  10.000000
O      -0.040621   4.721834  10.000003
O       4.240890   8.846513  18.667874
O       0.693970   0.777757  18.670091
Cu     -5.076083   6.976594  18.128846
Cu     -1.883461   7.033898  18.195142
Cu     -7.268813   9.723669  18.196782
Cu     -3.894552   9.669632  18.129225
O       6.398383   7.863768  17.661490
O      -5.555368  10.555044  17.660837
O      -4.828858   6.879212  16.084372
O      -3.647490   9.568942  16.085242
Cu      6.653727   7.752383  15.673785
Cu     -3.204249   7.760862  15.555199
Cu      4.542347  10.450855  15.554182
Cu     -5.298233  10.443721  15.673725
O       5.030002   8.623524  15.049708
O       1.480004   0.552462  15.049279
O       6.947192   7.614328  13.714344
O      -5.003840  10.304760  13.714347
Cu      5.300239   8.493669  13.116173
Cu     -4.550082   8.493637  13.116139
Cu     11.602471   0.422455  13.116118
Cu      1.752151   0.422425  13.116083
O      -4.096295   6.682622  12.517910
O      -2.913613   9.373049  12.517907
O       5.618691   8.343972  11.196440
O       2.070638   0.272682  11.196437
Cu     -3.777805   6.532880  10.598266
Cu     -0.494408   6.532849  10.598232
Cu     -5.878557   9.223382  10.598209
Cu     -2.595160   9.223352  10.598174
O      -5.424798   7.412261  10.000000
O      -4.242114  10.102691  10.000003
O       1.880003   3.467639  18.668482
O       3.061955   6.155352  18.666020
Cu      5.693376   1.600891  18.129898
Cu      8.883758   1.653210  18.195416
Cu      3.504296   4.342184  18.195837
Cu      6.877140   4.289116  18.130133
O       4.032407   2.484182  17.660986
O       5.217803   5.174316  17.662080
O       5.938061   1.497751  16.085919
O       7.122053   4.187002  16.086190
Cu      4.288259   2.373102  15.673647
Cu      7.562122   2.379657  15.555527
Cu      2.179517   5.070861  15.554800
Cu      5.471689   5.062368  15.673957
O       2.662992   3.243029  15.049436
O       3.847262   5.933199  15.049725
O       4.581825   2.233472  13.714344
O       5.764510   4.923902  13.714347
Cu      2.934873   3.112811  13.116173
Cu      6.218269   3.112779  13.116139
Cu      0.834121   5.803313  13.116118
Cu      4.117518   5.803283  13.116083
O       6.672056   1.301766  12.517910
O       7.854739   3.992191  12.517907
O       3.253325   2.963114  11.196440
O       4.436007   5.653540  11.196437
Cu      6.990546   1.152021  10.598266
Cu     10.273943   1.151991  10.598232
Cu      4.889795   3.842524  10.598209
Cu      8.173192   3.842494  10.598174
O       5.343553   2.031403  10.000000
O       6.526238   4.721834  10.000003
O      -2.325275   8.846717  18.668861
O       7.261042   0.777931  18.670705
Cu      1.490040   6.978235  18.128999
Cu      4.684856   7.032925  18.195950
Cu     -0.703337   9.724926  18.195346
Cu      2.670036   9.670908  18.129978
O      -0.169677   7.865183  17.660929
O       1.009533  10.556559  17.660051
O       1.737975   6.879862  16.083566
O       2.917823   9.568587  16.084426
Cu      0.086493   7.753992  15.674098
Cu      3.362099   7.760960  15.553970
Cu     -2.023017  10.451122  15.555568
Cu      1.267247  10.444267  15.673662
O      -1.537439   8.624526  15.049781
O       8.046345   0.553683  15.048973
O       0.380333   7.614328  13.714344
O       1.563018  10.304760  13.714347
Cu     -1.266618   8.493669  13.116173
Cu      2.016777   8.493637  13.116139
Cu      5.035613   0.422455  13.116118
Cu      8.319010   0.422425  13.116083
O       2.470564   6.682622  12.517910
O       3.653246   9.373049  12.517907
O      -0.948166   8.343972  11.196440
O       8.637499   0.272682  11.196437
Cu      2.789055   6.532880  10.598266
Cu      6.072451   6.532849  10.598232
Cu      0.688301   9.223382  10.598209
Cu      3.971700   9.223352  10.598174
O       1.142061   7.412261  10.000000
O       2.324746  10.102691  10.000003
N       1.644487   6.895509  19.919542
H       3.847805   4.960691  20.526228
H       2.334820   4.917351  20.485039
N       1.953106   6.000949  20.734296
O       3.065126   4.320235  20.031531
H      -0.000383   8.004291  18.713049
INTERMEDIATE_IMAGE
ATOMIC_POSITIONS {angstrom}
O       8.446113   3.467179  18.669443
O      -3.505414   6.155155  18.667150
Cu     -0.876237   1.600691  18.131118
Cu      2.318768   1.652338  18.196577
Cu     -3.064800   4.342591  18.195028
Cu      0.308479   4.289382  18.131279
O      10.596472   2.484454  17.660777
O      -1.351383   5.174496  17.662147
O      -0.630229   1.497565  16.085098
O       0.555200   4.187914  16.085328
Cu     10.852504   2.372535  15.673838
Cu      0.995021   2.379631  15.554450
Cu      8.745523   5.070228  15.555578
Cu     -1.096840   5.062738  15.674630
O       9.227928   3.243161  15.048954
O      -2.721588   5.933077  15.049581
O      11.148684   2.233472  13.714344
O      -0.802349   4.923902  13.714347
Cu      9.501732   3.112811  13.116173
Cu     -0.348590   3.112779  13.116139
Cu      7.400980   5.803313  13.116118
Cu     -2.449343   5.803283  13.116083
O       0.105197   1.301766  12.517910
O       1.287879   3.992191  12.517907
O       9.820184   2.963114  11.196440
O      -2.130853   5.653540  11.196437
Cu      0.423689   1.152021  10.598266
Cu      3.707084   1.151991  10.598232
Cu     -1.677066   3.842524  10.598209
Cu      1.606333   3.842494  10.598174
O      -1.223306   2.031403  10.000000
O      -0.040621   4.721834  10.000003
O       4.240781   8.846404  18.667765
O       0.693861   0.777648  18.669982
Cu     -5.076192   6.976485  18.128737
Cu     -1.883571   7.033789  18.195033
Cu     -7.268923   9.723560  18.196673
Cu     -3.894661   9.669523  18.129116
O       6.398274   7.863659  17.661381
O      -5.555477  10.554935  17.660728
O      -4.828967   6.879103  16.084263
O      -3.647600   9.568833  16.085133
Cu      6.653618   7.752273  15.673676
Cu     -3.204358   7.760753  15.555090
Cu      4.542238  10.450746  15.554073
Cu     -5.298343  10.443612  15.673616
O       5.029893   8.623414  15.049599
O       1.479895   0.552353  15.049170
O       6.947192   7.614328  13.714344
O      -5.003840  10.304760  13.714347
Cu      5.300239   8.493669  13.116173
Cu     -4.550082   8.493637  13.116139
Cu     11.602471   0.422455  13.116118
Cu      1.752151   0.422425  13.116083
O      -4.096295   6.682622  12.517910
O      -2.913613   9.373049  12.517907
O       5.618691   8.343972  11.196440
O       2.070638   0.272682  11.196437
Cu     -3.777805   6.532880  10.598266
Cu     -0.494408   6.532849  10.598232
Cu     -5.878557   9.223382  10.598209
Cu     -2.595160   9.223352  10.598174
O      -5.424798   7.412261  10.000000
O      -4.242114  10.102691  10.000003
O       1.879894   3.467530  18.668373
O       3.061846   6.155243  18.665911
Cu      5.693267   1.600782  18.129789
Cu      8.883649   1.653101  18.195307
Cu      3.504187   4.342075  18.195728
Cu      6.877031   4.289007  18.130024
O       4.032298   2.484073  17.660877
O       5.217694   5.174207  17.661971
O       5.937952   1.497642  16.085810
O       7.121944   4.186893  16.086081
Cu      4.288149   2.372992  15.673538
Cu      7.562013   2.379548  15.555418
Cu      2.179408   5.070752  15.554691
Cu      5.471580   5.062259  15.673848
O       2.662883   3.242920  15.049327
O       3.847153   5.933089  15.049616
O       4.581825   2.233472  13.714344
O       5.764510   4.923902  13.714347
Cu      2.934873   3.112811  13.116173
Cu      6.218269   3.112779  13.116139
Cu      0.834121   5.803313  13.116118
Cu      4.117518   5.803283  13.116083
O       6.672056   1.301766  12.517910
O       7.854739   3.992191  12.517907
O       3.253325   2.963114  11.196440
O       4.436007   5.653540  11.196437
Cu      6.990546   1.152021  10.598266
Cu     10.273943   1.151991  10.598232
Cu      4.889795   3.842524  10.598209
Cu      8.173192   3.842494  10.598174
O       5.343553   2.031403  10.000000
O       6.526238   4.721834  10.000003
O      -2.325385   8.846608  18.668752
O       7.260933   0.777821  18.670596
Cu      1.489931   6.978126  18.128890
Cu      4.684747   7.032816  18.195841
Cu     -0.703447   9.724817  18.195237
Cu      2.669927   9.670799  18.129869
O      -0.169787   7.865073  17.660820
O       1.009424  10.556450  17.659942
O       1.737866   6.879753  16.083457
O       2.917713   9.568478  16.084317
Cu      0.086384   7.753883  15.673989
Cu      3.361990   7.760851  15.553860
Cu     -2.023127  10.451013  15.555459
Cu      1.267138  10.444158  15.673553
O      -1.537549   8.624416  15.049671
O       8.046236   0.553573  15.048864
O       0.380333   7.614328  13.714344
O       1.563018  10.304760  13.714347
Cu     -1.266618   8.493669  13.116173
Cu      2.016777   8.493637  13.116139
Cu      5.035613   0.422455  13.116118
Cu      8.319010   0.422425  13.116083
O       2.470564   6.682622  12.517910
O       3.653246   9.373049  12.517907
O      -0.948166   8.343972  11.196440
O       8.637499   0.272682  11.196437
Cu      2.789055   6.532880  10.598266
Cu      6.072451   6.532849  10.598232
Cu      0.688301   9.223382  10.598209
Cu      3.971700   9.223352  10.598174
O       1.142061   7.412261  10.000000
O       2.324746  10.102691  10.000003
N       1.608957   6.954081  19.941464
H       4.057676   4.651328  20.534275
H       2.537714   4.629658  20.513680
N       1.853614   6.148480  20.900610
O       3.284602   4.331100  19.988575
H      -0.006492   7.982013  18.705599
LAST_IMAGE
ATOMIC_POSITIONS {angstrom}
O       8.523453   3.486974  18.691008
O      -3.530471   6.153093  18.649339
Cu     -0.874903   1.529567  18.110324
Cu      2.352087   1.594331  18.200877
Cu     -3.009840   4.367733  18.191097
Cu      0.359419   4.356286  18.224500
O      10.632244   2.480520  17.655307
O      -1.318460   5.256053  17.710047
O      -0.617099   1.473497  16.068185
O       0.559390   4.181397  16.255249
Cu     10.879010   2.377545  15.668660
Cu      1.010612   2.373519  15.613027
Cu      8.780777   5.068648  15.551470
Cu     -1.056792   5.086748  15.708209
O       9.239898   3.235690  15.053611
O      -2.682704   5.942230  15.060933
O      11.148684   2.233472  13.714344
O      -0.802349   4.923902  13.714347
Cu      9.501732   3.112811  13.116173
Cu     -0.348590   3.112779  13.116139
Cu      7.400980   5.803313  13.116118
Cu     -2.449343   5.803283  13.116083
O       0.105197   1.301766  12.517910