&CONTROL
    calculation   = "relax"
    forc_conv_thr =  0.01
    max_seconds   =  172800.0
    nstep         =  100
    pseudo_dir    = "./"
    verbosity     = "low"
/

&SYSTEM
    a                         =  13.1337185
    b                         =  13.6537423
    c                         =  28.7501618
    cosab                     = -0.61543451
    degauss                   =  0.01
    ecutrho                   =  225.0
    ecutwfc                   =  25.0
    ibrav                     =  12
    nat                       =  134
    nspin                     =  2
    ntyp                      =  4
    occupations               = "smearing"
    smearing                  = "gaussian"
    starting_magnetization(1) =  0.0
    starting_magnetization(2) =  0.2
/

&ELECTRONS
    conv_thr         =  1.0e-4
    diagonalization  = "david"
    electron_maxstep =  200
    mixing_beta      =  0.1
    startingpot      = "atomic"
    startingwfc      = "atomic+random"
/

&IONS
    ion_dynamics = "bfgs"
/

&CELL
/

K_POINTS {gamma}

ATOMIC_SPECIES
O      15.99940  O.pbe-rrkjus.UPF
Cu     63.54600  Cu.pbe-n-van_ak.UPF
N      14.00674  N.pbe-rrkjus.UPF
H       1.00794  H.pbe-rrkjus.UPF

ATOMIC_POSITIONS {angstrom}
O       8.446003   3.467069  18.669333
O      -3.505523   6.155046  18.667041
Cu     -0.876346   1.600581  18.131008
Cu      2.318658   1.652228  18.196467
Cu     -3.064909   4.342481  18.194918
Cu      0.308369   4.289272  18.131169
O      10.596362   2.484344  17.660667
O      -1.351492   5.174386  17.662037
O      -0.630338   1.497455  16.084988
O       0.555090   4.187804  16.085218
Cu     10.852394   2.372425  15.673728
Cu      0.994911   2.379521  15.554340
Cu      8.745413   5.070118  15.555468
Cu     -1.096950   5.062628  15.674520
O       9.227818   3.243051  15.048844
O      -2.721697   5.932967  15.049472
O      11.148684   2.233472  13.714344  0 0 0
O      -0.802349   4.923902  13.714347  0 0 0
Cu      9.501732   3.112811  13.116173  0 0 0
Cu     -0.348590   3.112779  13.116139  0 0 0
Cu      7.400980   5.803313  13.116118  0 0 0
Cu     -2.449343   5.803283  13.116083  0 0 0
O       0.105197   1.301766  12.517910  0 0 0
O       1.287879   3.992191  12.517907  0 0 0
O       9.820184   2.963114  11.196440  0 0 0
O      -2.130853   5.653540  11.196437  0 0 0
Cu      0.423689   1.152021  10.598266  0 0 0
Cu      3.707084   1.151991  10.598232  0 0 0
Cu     -1.677066   3.842524  10.598209  0 0 0
Cu      1.606333   3.842494  10.598174  0 0 0
O      -1.223306   2.031403  10.000000  0 0 0
O      -0.040621   4.721834  10.000003  0 0 0
O       4.240671   8.846294  18.667655
O       0.693751   0.777538  18.669872
Cu     -5.076302   6.976375  18.128627
Cu     -1.883680   7.033679  18.194923
Cu     -7.269032   9.723450  18.196563
Cu     -3.894771   9.669413  18.129006
O       6.398164   7.863549  17.661271
O      -5.555587  10.554825  17.660618
O      -4.829077   6.878993  16.084153
O      -3.647709   9.568723  16.085023
Cu      6.653508   7.752164  15.673566
Cu     -3.204468   7.760643  15.554980
Cu      4.542128  10.450636  15.553963
Cu     -5.298452  10.443502  15.673506
O       5.029783   8.623305  15.049489
O       1.479785   0.552243  15.049060
O       6.947192   7.614328  13.714344  0 0 0
O      -5.003840  10.304760  13.714347  0 0 0
Cu      5.300239   8.493669  13.116173  0 0 0
Cu     -4.550082   8.493637  13.116139  0 0 0
Cu     11.602471   0.422455  13.116118  0 0 0
Cu      1.752151   0.422425  13.116083  0 0 0
O      -4.096295   6.682622  12.517910  0 0 0
O      -2.913613   9.373049  12.517907  0 0 0
O       5.618691   8.343972  11.196440  0 0 0
O       2.070638   0.272682  11.196437  0 0 0
Cu     -3.777805   6.532880  10.598266  0 0 0
Cu     -0.494408   6.532849  10.598232  0 0 0
Cu     -5.878557   9.223382  10.598209  0 0 0
Cu     -2.595160   9.223352  10.598174  0 0 0
O      -5.424798   7.412261  10.000000  0 0 0
O      -4.242114  10.102691  10.000003  0 0 0
O       1.879784   3.467420  18.668263
O       3.061736   6.155133  18.665801
Cu      5.693157   1.600672  18.129679
Cu      8.883539   1.652991  18.195197
Cu      3.504077   4.341965  18.195618
Cu      6.876921   4.288897  18.129914
O       4.032188   2.483963  17.660767
O       5.217584   5.174097  17.661861
O       5.937842   1.497532  16.085700
O       7.121834   4.186783  16.085971
Cu      4.288040   2.372883  15.673428
Cu      7.561903   2.379438  15.555308
Cu      2.179298   5.070642  15.554581
Cu      5.471470   5.062149  15.673738
O       2.662773   3.242810  15.049217
O       3.847043   5.932980  15.049506
O       4.581825   2.233472  13.714344  0 0 0
O       5.764510   4.923902  13.714347  0 0 0
Cu      2.934873   3.112811  13.116173  0 0 0
Cu      6.218269   3.112779  13.116139  0 0 0
Cu      0.834121   5.803313  13.116118  0 0 0
Cu      4.117518   5.803283  13.116083  0 0 0
O       6.672056   1.301766  12.517910  0 0 0
O       7.854739   3.992191  12.517907  0 0 0
O       3.253325   2.963114  11.196440  0 0 0
O       4.436007   5.653540  11.196437  0 0 0
Cu      6.990546   1.152021  10.598266  0 0 0
Cu     10.273943   1.151991  10.598232  0 0 0
Cu      4.889795   3.842524  10.598209  0 0 0
Cu      8.173192   3.842494  10.598174  0 0 0
O       5.343553   2.031403  10.000000  0 0 0
O       6.526238   4.721834  10.000003  0 0 0
O      -2.325494   8.846498  18.668642
O       7.260823   0.777712  18.670486
Cu      1.489821   6.978016  18.128780
Cu      4.684637   7.032706  18.195731
Cu     -0.703556   9.724707  18.195127
Cu      2.669817   9.670689  18.129759
O      -0.169896   7.864964  17.660710
O       1.009314  10.556340  17.659832
O       1.737756   6.879643  16.083347
O       2.917604   9.568368  16.084207
Cu      0.086274   7.753773  15.673879
Cu      3.361880   7.760741  15.553751
Cu     -2.023236  10.450903  15.555349
Cu      1.267028  10.444048  15.673443
O      -1.537658   8.624307  15.049562
O       8.046126   0.553464  15.048754
O       0.380333   7.614328  13.714344  0 0 0
O       1.563018  10.304760  13.714347  0 0 0
Cu     -1.266618   8.493669  13.116173  0 0 0
Cu      2.016777   8.493637  13.116139  0 0 0
Cu      5.035613   0.422455  13.116118  0 0 0
Cu      8.319010   0.422425  13.116083  0 0 0
O       2.470564   6.682622  12.517910  0 0 0
O       3.653246   9.373049  12.517907  0 0 0
O      -0.948166   8.343972  11.196440  0 0 0
O       8.637499   0.272682  11.196437  0 0 0
Cu      2.789055   6.532880  10.598266  0 0 0
Cu      6.072451   6.532849  10.598232  0 0 0
Cu      0.688301   9.223382  10.598209  0 0 0
Cu      3.971700   9.223352  10.598174  0 0 0
O       1.142061   7.412261  10.000000  0 0 0
O       2.324746  10.102691  10.000003  0 0 0
N       1.573425   7.012653  19.963386
H       1.625802   5.545612  20.698354
H       0.478137   5.045555  20.791480
N       2.719328   6.869001  20.496436
O       1.241637   5.205108  20.090784
H       0.039213   8.151184  18.761545



