&PATH
    ci_scheme      = "auto"
    ds             =  1.0
    first_last_opt = .FALSE.
    k_max          =  0.61685028
    k_min          =  0.41123352
    nstep_path     =  250
    num_of_images  =  6
    opt_scheme     = "broyden"
    path_thr       =  0.1
    string_method  = "neb"
    use_freezing   = .FALSE.
/
&CONTROL
    pseudo_dir = "C:\Users\User\.nanolabo\.pseudopot"
    verbosity  = "low"
/
&SYSTEM
    a                         =  13.1337185
    b                         =  13.6537423
    c                         =  28.7501618
    cosab                     = -0.61543451
    degauss                   =  0.01
    ecutrho                   =  225.0
    ecutwfc                   =  25.0
    ibrav                     =  12
    nat                       =  134
    nspin                     =  2
    ntyp                      =  4
    occupations               = "smearing"
    smearing                  = "gaussian"
    starting_magnetization(1) =  0.0
    starting_magnetization(2) =  0.2
/
&ELECTRONS
    conv_thr         =  1.0e-4
    diagonalization  = "david"
    electron_maxstep =  200
    mixing_beta      =  0.1
    startingpot      = "atomic"
    startingwfc      = "atomic+random"
/
ATOMIC_SPECIES
 O 1.0 ./O.pbe-rrkjus.UPF
 Cu 1.0 ./Cu.pbe-n-van_ak.UPF
 N 1.0 ./N.pbe-rrkjus.UPF
 H 1.0 ./H.pbe-rrkjus.UPF
ATOMIC_POSITIONS {angstrom}
 O 8.44600300 3.46706900 18.66933300
 O -3.50552300 6.15504600 18.66704100
 Cu -0.87634600 1.60058100 18.13100800
 Cu 2.31865800 1.65222800 18.19646700
 Cu -3.06490900 4.34248100 18.19491800
 Cu 0.30836900 4.28927200 18.13116900
 O 10.59636200 2.48434400 17.66066700
 O -1.35149200 5.17438600 17.66203700
 O -0.63033800 1.49745500 16.08498800
 O 0.55509000 4.18780400 16.08521800
 Cu 10.85239400 2.37242500 15.67372800
 Cu 0.99491100 2.37952100 15.55434000
 Cu 8.74541300 5.07011800 15.55546800
 Cu -1.09695000 5.06262800 15.67452000
 O 9.22781800 3.24305100 15.04884400
 O -2.72169700 5.93296700 15.04947200
 O 11.14868400 2.23347200 13.71434400
 O -0.80234900 4.92390200 13.71434700
 Cu 9.50173200 3.11281100 13.11617300
 Cu -0.34859000 3.11277900 13.11613900
 Cu 7.40098000 5.80331300 13.11611800
 Cu -2.44934300 5.80328300 13.11608300
 O 0.10519700 1.30176600 12.51791000
 O 1.28787900 3.99219100 12.51790700
 O 9.82018400 2.96311400 11.19644000
 O -2.13085300 5.65354000 11.19643700
 Cu 0.42368900 1.15202100 10.59826600
 Cu 3.70708400 1.15199100 10.59823200
 Cu -1.67706600 3.84252400 10.59820900
 Cu 1.60633300 3.84249400 10.59817400
 O -1.22330600 2.03140300 10.00000000
 O -0.04062100 4.72183400 10.00000300
 O 4.24067100 8.84629400 18.66765500
 O 0.69375100 0.77753800 18.66987200
 Cu -5.07630200 6.97637500 18.12862700
 Cu -1.88368000 7.03367900 18.19492300
 Cu -7.26903200 9.72345000 18.19656300
 Cu -3.89477100 9.66941300 18.12900600
 O 6.39816400 7.86354900 17.66127100
 O -5.55558700 10.55482500 17.66061800
 O -4.82907700 6.87899300 16.08415300
 O -3.64770900 9.56872300 16.08502300
 Cu 6.65350800 7.75216400 15.67356600
 Cu -3.20446800 7.76064300 15.55498000
 Cu 4.54212800 10.45063600 15.55396300
 Cu -5.29845200 10.44350200 15.67350600
 O 5.02978300 8.62330500 15.04948900
 O 1.47978500 0.55224300 15.04906000
 O 6.94719200 7.61432800 13.71434400
 O -5.00384000 10.30476000 13.71434700
 Cu 5.30023900 8.49366900 13.11617300
 Cu -4.55008200 8.49363700 13.11613900
 Cu 11.60247100 0.42245500 13.11611800
 Cu 1.75215100 0.42242500 13.11608300
 O -4.09629500 6.68262200 12.51791000
 O -2.91361300 9.37304900 12.51790700
 O 5.61869100 8.34397200 11.19644000
 O 2.07063800 0.27268200 11.19643700
 Cu -3.77780500 6.53288000 10.59826600
 Cu -0.49440800 6.53284900 10.59823200
 Cu -5.87855700 9.22338200 10.59820900
 Cu -2.59516000 9.22335200 10.59817400
 O -5.42479800 7.41226100 10.00000000
 O -4.24211400 10.10269100 10.00000300
 O 1.87978400 3.46742000 18.66826300
 O 3.06173600 6.15513300 18.66580100
 Cu 5.69315700 1.60067200 18.12967900
 Cu 8.88353900 1.65299100 18.19519700
 Cu 3.50407700 4.34196500 18.19561800
 Cu 6.87692100 4.28889700 18.12991400
 O 4.03218800 2.48396300 17.66076700
 O 5.21758400 5.17409700 17.66186100
 O 5.93784200 1.49753200 16.08570000
 O 7.12183400 4.18678300 16.08597100
 Cu 4.28804000 2.37288300 15.67342800
 Cu 7.56190300 2.37943800 15.55530800
 Cu 2.17929800 5.07064200 15.55458100
 Cu 5.47147000 5.06214900 15.67373800
 O 2.66277300 3.24281000 15.04921700
 O 3.84704300 5.93298000 15.04950600
 O 4.58182500 2.23347200 13.71434400
 O 5.76451000 4.92390200 13.71434700
 Cu 2.93487300 3.11281100 13.11617300
 Cu 6.21826900 3.11277900 13.11613900
 Cu 0.83412100 5.80331300 13.11611800
 Cu 4.11751800 5.80328300 13.11608300
 O 6.67205600 1.30176600 12.51791000
 O 7.85473900 3.99219100 12.51790700
 O 3.25332500 2.96311400 11.19644000
 O 4.43600700 5.65354000 11.19643700
 Cu 6.99054600 1.15202100 10.59826600
 Cu 10.27394300 1.15199100 10.59823200
 Cu 4.88979500 3.84252400 10.59820900
 Cu 8.17319200 3.84249400 10.59817400
 O 5.34355300 2.03140300 10.00000000
 O 6.52623800 4.72183400 10.00000300
 O -2.32549400 8.84649800 18.66864200
 O 7.26082300 0.77771200 18.67048600
 Cu 1.48982100 6.97801600 18.12878000
 Cu 4.68463700 7.03270600 18.19573100
 Cu -0.70355600 9.72470700 18.19512700
 Cu 2.66981700 9.67068900 18.12975900
 O -0.16989600 7.86496400 17.66071000
 O 1.00931400 10.55634000 17.65983200
 O 1.73775600 6.87964300 16.08334700
 O 2.91760400 9.56836800 16.08420700
 Cu 0.08627400 7.75377300 15.67387900
 Cu 3.36188000 7.76074100 15.55375100
 Cu -2.02323600 10.45090300 15.55534900
 Cu 1.26702800 10.44404800 15.67344300
 O -1.53765800 8.62430700 15.04956200
 O 8.04612600 0.55346400 15.04875400
 O 0.38033300 7.61432800 13.71434400
 O 1.56301800 10.30476000 13.71434700
 Cu -1.26661800 8.49366900 13.11617300
 Cu 2.01677700 8.49363700 13.11613900
 Cu 5.03561300 0.42245500 13.11611800
 Cu 8.31901000 0.42242500 13.11608300
 O 2.47056400 6.68262200 12.51791000
 O 3.65324600 9.37304900 12.51790700
 O -0.94816600 8.34397200 11.19644000
 O 8.63749900 0.27268200 11.19643700
 Cu 2.78905500 6.53288000 10.59826600
 Cu 6.07245100 6.53284900 10.59823200
 Cu 0.68830100 9.22338200 10.59820900
 Cu 3.97170000 9.22335200 10.59817400
 O 1.14206100 7.41226100 10.00000000
 O 2.32474600 10.10269100 10.00000300
 N 1.57342500 7.01265300 19.96338600
 H 2.45417500 7.01265300 20.47188600
 H 0.69267500 7.01265300 20.47188600
 N 2.75532200 4.77393100 19.55977600
 O 1.70815500 4.99184300 20.06598600
 H 0.03921300 8.15118400 18.76154500
 O 8.44904000 3.47010600 18.67237000
 O -3.50248600 6.15808300 18.67007800
 Cu -0.87330900 1.60361800 18.13404500
 Cu 2.32169500 1.65526500 18.19950400
 Cu -3.06187200 4.34551800 18.19795500
 Cu 0.31140600 4.29230900 18.13420600
 O 10.59939900 2.48738100 17.66370400
 O -1.34845500 5.17742300 17.66507400
 O -0.62730100 1.50049200 16.08802500
 O 0.55812700 4.19084100 16.08825500
 Cu 10.85543100 2.37546200 15.67676500
 Cu 0.99794800 2.38255800 15.55737700
 Cu 8.74845000 5.07315500 15.55850500
 Cu -1.09391300 5.06566500 15.67755700
 O 9.23085500 3.24608800 15.05188100
 O -2.71866000 5.93600400 15.05250900
 O 11.14868400 2.23347200 13.71434400
 O -0.80234900 4.92390200 13.71434700
 Cu 9.50173200 3.11281100 13.11617300
 Cu -0.34859000 3.11277900 13.11613900
 Cu 7.40098000 5.80331300 13.11611800
 Cu -2.44934300 5.80328300 13.11608300
 O 0.10519700 1.30176600 12.51791000
 O 1.28787900 3.99219100 12.51790700
 O 9.82018400 2.96311400 11.19644000
 O -2.13085300 5.65354000 11.19643700
 Cu 0.42368900 1.15202100 10.59826600
 Cu 3.70708400 1.15199100 10.59823200
 Cu -1.67706600 3.84252400 10.59820900
 Cu 1.60633300 3.84249400 10.59817400
 O -1.22330600 2.03140300 10.00000000
 O -0.04062100 4.72183400 10.00000300
 O 4.24370800 8.84933100 18.67069200
 O 0.69678800 0.78057500 18.67290900
 Cu -5.07326500 6.97941200 18.13166400
 Cu -1.88064300 7.03671600 18.19796000
 Cu -7.26599500 9.72648700 18.19960000
 Cu -3.89173400 9.67245000 18.13204300
 O 6.40120100 7.86658600 17.66430800
 O -5.55255000 10.55786200 17.66365500
 O -4.82604000 6.88203000 16.08719000
 O -3.64467200 9.57176000 16.08806000
 Cu 6.65654500 7.75520100 15.67660300
 Cu -3.20143100 7.76368000 15.55801700
 Cu 4.54516500 10.45367300 15.55700000
 Cu -5.29541500 10.44653900 15.67654300
 O 5.03282000 8.62634200 15.05252600
 O 1.48282200 0.55528000 15.05209700
 O 6.94719200 7.61432800 13.71434400
 O -5.00384000 10.30476000 13.71434700
 Cu 5.30023900 8.49366900 13.11617300
 Cu -4.55008200 8.49363700 13.11613900
 Cu 11.60247100 0.42245500 13.11611800
 Cu 1.75215100 0.42242500 13.11608300
 O -4.09629500 6.68262200 12.51791000
 O -2.91361300 9.37304900 12.51790700
 O 5.61869100 8.34397200 11.19644000
 O 2.07063800 0.27268200 11.19643700
 Cu -3.77780500 6.53288000 10.59826600
 Cu -0.49440800 6.53284900 10.59823200
 Cu -5.87855700 9.22338200 10.59820900
 Cu -2.59516000 9.22335200 10.59817400
 O -5.42479800 7.41226100 10.00000000
 O -4.24211400 10.10269100 10.00000300
 O 1.88282100 3.47045700 18.67130000
 O 3.06477300 6.15817000 18.66883800
 Cu 5.69619400 1.60370900 18.13271600
 Cu 8.88657600 1.65602800 18.19823400
 Cu 3.50711400 4.34500200 18.19865500
 Cu 6.87995800 4.29193400 18.13295100
 O 4.03522500 2.48700000 17.66380400
 O 5.22062100 5.17713400 17.66489800
 O 5.94087900 1.50056900 16.08873700
 O 7.12487100 4.18982000 16.08900800
 Cu 4.29107700 2.37592000 15.67646500
 Cu 7.56494000 2.38247500 15.55834500
 Cu 2.18233500 5.07367900 15.55761800
 Cu 5.47450700 5.06518600 15.67677500
 O 2.66581000 3.24584700 15.05225400
 O 3.85008000 5.93601700 15.05254300
 O 4.58182500 2.23347200 13.71434400
 O 5.76451000 4.92390200 13.71434700
 Cu 2.93487300 3.11281100 13.11617300
 Cu 6.21826900 3.11277900 13.11613900
 Cu 0.83412100 5.80331300 13.11611800
 Cu 4.11751800 5.80328300 13.11608300
 O 6.67205600 1.30176600 12.51791000
 O 7.85473900 3.99219100 12.51790700
 O 3.25332500 2.96311400 11.19644000
 O 4.43600700 5.65354000 11.19643700
 Cu 6.99054600 1.15202100 10.59826600
 Cu 10.27394300 1.15199100 10.59823200
 Cu 4.88979500 3.84252400 10.59820900
 Cu 8.17319200 3.84249400 10.59817400
 O 5.34355300 2.03140300 10.00000000
 O 6.52623800 4.72183400 10.00000300
 O -2.32245700 8.84953500 18.67167900
 O 7.26386000 0.78074900 18.67352300
 Cu 1.49285800 6.98105300 18.13181700
 Cu 4.68767400 7.03574300 18.19876800
 Cu -0.70051900 9.72774400 18.19816400
 Cu 2.67285400 9.67372600 18.13279600
 O -0.16685900 7.86800100 17.66374700
 O 1.01235100 10.55937700 17.66286900
 O 1.74079300 6.88268000 16.08638400
 O 2.92064100 9.57140500 16.08724400
 Cu 0.08931100 7.75681000 15.67691600
 Cu 3.36491700 7.76377800 15.55678800
 Cu -2.02019900 10.45394000 15.55838600
 Cu 1.27006500 10.44708500 15.67648000
 O -1.53462100 8.62734400 15.05259900
 O 8.04916300 0.55650100 15.05179100
 O 0.38033300 7.61432800 13.71434400
 O 1.56301800 10.30476000 13.71434700
 Cu -1.26661800 8.49366900 13.11617300
 Cu 2.01677700 8.49363700 13.11613900
 Cu 5.03561300 0.42245500 13.11611800
 Cu 8.31901000 0.42242500 13.11608300
 O 2.47056400 6.68262200 12.51791000
 O 3.65324600 9.37304900 12.51790700
 O -0.94816600 8.34397200 11.19644000
 O 8.63749900 0.27268200 11.19643700
 Cu 2.78905500 6.53288000 10.59826600
 Cu 6.07245100 6.53284900 10.59823200
 Cu 0.68830100 9.22338200 10.59820900
 Cu 3.97170000 9.22335200 10.59817400
 O 1.14206100 7.41226100 10.00000000
 O 2.32474600 10.10269100 10.00000300
 N 1.85972800 6.54641100 19.79023800
 H 2.59135100 6.81813400 20.48013300
 H 1.12020700 6.64483900 20.31543700
 N 2.55193500 5.11835700 19.73905500
 O 1.75107000 4.25723900 20.29130900
 H 0.03841800 8.14005900 18.75989300
 O 8.44668400 3.46775000 18.67001400
 O -3.50484200 6.15572700 18.66772200
 Cu -0.87566500 1.60126200 18.13168900
 Cu 2.31933900 1.65290900 18.19714800
 Cu -3.06422800 4.34316200 18.19559900
 Cu 0.30905000 4.28995300 18.13185000
 O 10.59704300 2.48502500 17.66134800
 O -1.35081100 5.17506700 17.66271800
 O -0.62965700 1.49813600 16.08566900
 O 0.55577100 4.18848500 16.08589900
 Cu 10.85307500 2.37310600 15.67440900
 Cu 0.99559200 2.38020200 15.55502100
 Cu 8.74609400 5.07079900 15.55614900
 Cu -1.09626900 5.06330900 15.67520100
 O 9.22849900 3.24373200 15.04952500
 O -2.72101600 5.93364800 15.05015300
 O 11.14868400 2.23347200 13.71434400
 O -0.80234900 4.92390200 13.71434700
 Cu 9.50173200 3.11281100 13.11617300
 Cu -0.34859000 3.11277900 13.11613900
 Cu 7.40098000 5.80331300 13.11611800
 Cu -2.44934300 5.80328300 13.11608300
 O 0.10519700 1.30176600 12.51791000
 O 1.28787900 3.99219100 12.51790700
 O 9.82018400 2.96311400 11.19644000
 O -2.13085300 5.65354000 11.19643700
 Cu 0.42368900 1.15202100 10.59826600
 Cu 3.70708400 1.15199100 10.59823200
 Cu -1.67706600 3.84252400 10.59820900
 Cu 1.60633300 3.84249400 10.59817400
 O -1.22330600 2.03140300 10.00000000
 O -0.04062100 4.72183400 10.00000300
 O 4.24135300 8.84697500 18.66833600
 O 0.69443200 0.77821900 18.67055300
 Cu -5.07562100 6.97705600 18.12930800
 Cu -1.88299900 7.03436000 18.19560400
 Cu -7.26835100 9.72413100 18.19724400
 Cu -3.89409000 9.67009400 18.12968700
 O 6.39884600 7.86423000 17.66195200
 O -5.55490500 10.55550600 17.66129900
 O -4.82839500 6.87967400 16.08483400
 O -3.64702800 9.56940400 16.08570400
 Cu 6.65418900 7.75284500 15.67424700
 Cu -3.20378700 7.76132400 15.55566100
 Cu 4.54280900 10.45131700 15.55464400
 Cu -5.29777100 10.44418300 15.67418700
 O 5.03046400 8.62398600 15.05017000
 O 1.48046600 0.55292400 15.04974100
 O 6.94719200 7.61432800 13.71434400
 O -5.00384000 10.30476000 13.71434700
 Cu 5.30023900 8.49366900 13.11617300
 Cu -4.55008200 8.49363700 13.11613900
 Cu 11.60247100 0.42245500 13.11611800
 Cu 1.75215100 0.42242500 13.11608300
 O -4.09629500 6.68262200 12.51791000
 O -2.91361300 9.37304900 12.51790700
 O 5.61869100 8.34397200 11.19644000
 O 2.07063800 0.27268200 11.19643700
 Cu -3.77780500 6.53288000 10.59826600
 Cu -0.49440800 6.53284900 10.59823200
 Cu -5.87855700 9.22338200 10.59820900
 Cu -2.59516000 9.22335200 10.59817400
 O -5.42479800 7.41226100 10.00000000
 O -4.24211400 10.10269100 10.00000300
 O 1.88046500 3.46810100 18.66894400
 O 3.06241700 6.15581400 18.66648200
 Cu 5.69383800 1.60135300 18.13036000
 Cu 8.88422000 1.65367200 18.19587800
 Cu 3.50475800 4.34264600 18.19629900
 Cu 6.87760200 4.28957800 18.13059500
 O 4.03286900 2.48464400 17.66144800
 O 5.21826500 5.17477800 17.66254200
 O 5.93852300 1.49821300 16.08638100
 O 7.12251500 4.18746400 16.08665200
 Cu 4.28872100 2.37356400 15.67410900
 Cu 7.56258400 2.38011900 15.55598900
 Cu 2.17997900 5.07132300 15.55526200
 Cu 5.47215100 5.06283000 15.67441900
 O 2.66345400 3.24349100 15.04989800
 O 3.84772400 5.93366100 15.05018700
 O 4.58182500 2.23347200 13.71434400
 O 5.76451000 4.92390200 13.71434700
 Cu 2.93487300 3.11281100 13.11617300
 Cu 6.21826900 3.11277900 13.11613900
 Cu 0.83412100 5.80331300 13.11611800
 Cu 4.11751800 5.80328300 13.11608300
 O 6.67205600 1.30176600 12.51791000
 O 7.85473900 3.99219100 12.51790700
 O 3.25332500 2.96311400 11.19644000
 O 4.43600700 5.65354000 11.19643700
 Cu 6.99054600 1.15202100 10.59826600
 Cu 10.27394300 1.15199100 10.59823200
 Cu 4.88979500 3.84252400 10.59820900
 Cu 8.17319200 3.84249400 10.59817400
 O 5.34355300 2.03140300 10.00000000
 O 6.52623800 4.72183400 10.00000300
 O -2.32481300 8.84717900 18.66932300
 O 7.26150400 0.77839300 18.67116700
 Cu 1.49050200 6.97869700 18.12946100
 Cu 4.68531800 7.03338700 18.19641200
 Cu -0.70287500 9.72538800 18.19580800
 Cu 2.67049800 9.67137000 18.13044000
 O -0.16921500 7.86564500 17.66139100
 O 1.00999600 10.55702200 17.66051300
 O 1.73843700 6.88032400 16.08402800
 O 2.91828500 9.56904900 16.08488800
 Cu 0.08695500 7.75445400 15.67456000
 Cu 3.36256100 7.76142200 15.55443200
 Cu -2.02255500 10.45158400 15.55603000
 Cu 1.26770900 10.44473000 15.67412400
 O -1.53697700 8.62498800 15.05024300
 O 8.04680700 0.55414500 15.04943500
 O 0.38033300 7.61432800 13.71434400
 O 1.56301800 10.30476000 13.71434700
 Cu -1.26661800 8.49366900 13.11617300
 Cu 2.01677700 8.49363700 13.11613900
 Cu 5.03561300 0.42245500 13.11611800
 Cu 8.31901000 0.42242500 13.11608300
 O 2.47056400 6.68262200 12.51791000
 O 3.65324600 9.37304900 12.51790700
 O -0.94816600 8.34397200 11.19644000
 O 8.63749900 0.27268200 11.19643700
 Cu 2.78905500 6.53288000 10.59826600
 Cu 6.07245100 6.53284900 10.59823200
 Cu 0.68830100 9.22338200 10.59820900
 Cu 3.97170000 9.22335200 10.59817400
 O 1.14206100 7.41226100 10.00000000
 O 2.32474600 10.10269100 10.00000300
 N 1.71579600 6.77860100 19.87593900
 H 3.42827600 5.57970500 20.51037700
 H 1.92924600 5.49302300 20.42799600
 N 2.15234900 5.70611100 20.40188600
 O 2.62638600 4.29874700 20.11769400
 H 0.01208000 8.04909400 18.72819400
 O 8.44622200 3.46728800 18.66955200
 O -3.50530400 6.15526500 18.66726000
 Cu -0.87612700 1.60080000 18.13122700
 Cu 2.31887700 1.65244700 18.19668600
 Cu -3.06469000 4.34270000 18.19513700
 Cu 0.30858800 4.28949100 18.13138800
 O 10.59658100 2.48456300 17.66088600
 O -1.35127300 5.17460500 17.66225600
 O -0.63011900 1.49767400 16.08520700
 O 0.55530900 4.18802300 16.08543700
 Cu 10.85261300 2.37264400 15.67394700
 Cu 0.99513000 2.37974000 15.55455900
 Cu 8.74563200 5.07033700 15.55568700
 Cu -1.09673100 5.06284700 15.67473900
 O 9.22803700 3.24327000 15.04906300
 O -2.72147800 5.93318600 15.04969100
 O 11.14868400 2.23347200 13.71434400
 O -0.80234900 4.92390200 13.71434700
 Cu 9.50173200 3.11281100 13.11617300
 Cu -0.34859000 3.11277900 13.11613900
 Cu 7.40098000 5.80331300 13.11611800
 Cu -2.44934300 5.80328300 13.11608300
 O 0.10519700 1.30176600 12.51791000
 O 1.28787900 3.99219100 12.51790700
 O 9.82018400 2.96311400 11.19644000
 O -2.13085300 5.65354000 11.19643700
 Cu 0.42368900 1.15202100 10.59826600
 Cu 3.70708400 1.15199100 10.59823200
 Cu -1.67706600 3.84252400 10.59820900
 Cu 1.60633300 3.84249400 10.59817400
 O -1.22330600 2.03140300 10.00000000
 O -0.04062100 4.72183400 10.00000300
 O 4.24089000 8.84651300 18.66787400
 O 0.69397000 0.77775700 18.67009100
 Cu -5.07608300 6.97659400 18.12884600
 Cu -1.88346100 7.03389800 18.19514200
 Cu -7.26881300 9.72366900 18.19678200
 Cu -3.89455200 9.66963200 18.12922500
 O 6.39838300 7.86376800 17.66149000
 O -5.55536800 10.55504400 17.66083700
 O -4.82885800 6.87921200 16.08437200
 O -3.64749000 9.56894200 16.08524200
 Cu 6.65372700 7.75238300 15.67378500
 Cu -3.20424900 7.76086200 15.55519900
 Cu 4.54234700 10.45085500 15.55418200
 Cu -5.29823300 10.44372100 15.67372500
 O 5.03000200 8.62352400 15.04970800
 O 1.48000400 0.55246200 15.04927900
 O 6.94719200 7.61432800 13.71434400
 O -5.00384000 10.30476000 13.71434700
 Cu 5.30023900 8.49366900 13.11617300
 Cu -4.55008200 8.49363700 13.11613900
 Cu 11.60247100 0.42245500 13.11611800
 Cu 1.75215100 0.42242500 13.11608300
 O -4.09629500 6.68262200 12.51791000
 O -2.91361300 9.37304900 12.51790700
 O 5.61869100 8.34397200 11.19644000
 O 2.07063800 0.27268200 11.19643700
 Cu -3.77780500 6.53288000 10.59826600
 Cu -0.49440800 6.53284900 10.59823200
 Cu -5.87855700 9.22338200 10.59820900
 Cu -2.59516000 9.22335200 10.59817400
 O -5.42479800 7.41226100 10.00000000
 O -4.24211400 10.10269100 10.00000300
 O 1.88000300 3.46763900 18.66848200
 O 3.06195500 6.15535200 18.66602000
 Cu 5.69337600 1.60089100 18.12989800
 Cu 8.88375800 1.65321000 18.19541600
 Cu 3.50429600 4.34218400 18.19583700
 Cu 6.87714000 4.28911600 18.13013300
 O 4.03240700 2.48418200 17.66098600
 O 5.21780300 5.17431600 17.66208000
 O 5.93806100 1.49775100 16.08591900
 O 7.12205300 4.18700200 16.08619000
 Cu 4.28825900 2.37310200 15.67364700
 Cu 7.56212200 2.37965700 15.55552700
 Cu 2.17951700 5.07086100 15.55480000
 Cu 5.47168900 5.06236800 15.67395700
 O 2.66299200 3.24302900 15.04943600
 O 3.84726200 5.93319900 15.04972500
 O 4.58182500 2.23347200 13.71434400
 O 5.76451000 4.92390200 13.71434700
 Cu 2.93487300 3.11281100 13.11617300
 Cu 6.21826900 3.11277900 13.11613900
 Cu 0.83412100 5.80331300 13.11611800
 Cu 4.11751800 5.80328300 13.11608300
 O 6.67205600 1.30176600 12.51791000
 O 7.85473900 3.99219100 12.51790700
 O 3.25332500 2.96311400 11.19644000
 O 4.43600700 5.65354000 11.19643700
 Cu 6.99054600 1.15202100 10.59826600
 Cu 10.27394300 1.15199100 10.59823200
 Cu 4.88979500 3.84252400 10.59820900
 Cu 8.17319200 3.84249400 10.59817400
 O 5.34355300 2.03140300 10.00000000
 O 6.52623800 4.72183400 10.00000300
 O -2.32527500 8.84671700 18.66886100
 O 7.26104200 0.77793100 18.67070500
 Cu 1.49004000 6.97823500 18.12899900
 Cu 4.68485600 7.03292500 18.19595000
 Cu -0.70333700 9.72492600 18.19534600
 Cu 2.67003600 9.67090800 18.12997800
 O -0.16967700 7.86518300 17.66092900
 O 1.00953300 10.55655900 17.66005100
 O 1.73797500 6.87986200 16.08356600
 O 2.91782300 9.56858700 16.08442600
 Cu 0.08649300 7.75399200 15.67409800
 Cu 3.36209900 7.76096000 15.55397000
 Cu -2.02301700 10.45112200 15.55556800
 Cu 1.26724700 10.44426700 15.67366200
 O -1.53743900 8.62452600 15.04978100
 O 8.04634500 0.55368300 15.04897300
 O 0.38033300 7.61432800 13.71434400
 O 1.56301800 10.30476000 13.71434700
 Cu -1.26661800 8.49366900 13.11617300
 Cu 2.01677700 8.49363700 13.11613900
 Cu 5.03561300 0.42245500 13.11611800
 Cu 8.31901000 0.42242500 13.11608300
 O 2.47056400 6.68262200 12.51791000
 O 3.65324600 9.37304900 12.51790700
 O -0.94816600 8.34397200 11.19644000
 O 8.63749900 0.27268200 11.19643700
 Cu 2.78905500 6.53288000 10.59826600
 Cu 6.07245100 6.53284900 10.59823200
 Cu 0.68830100 9.22338200 10.59820900
 Cu 3.97170000 9.22335200 10.59817400
 O 1.14206100 7.41226100 10.00000000
 O 2.32474600 10.10269100 10.00000300
 N 1.64448700 6.89550900 19.91954200
 H 3.84780500 4.96069100 20.52622800
 H 2.33482000 4.91735100 20.48503900
 N 1.95310600 6.00094900 20.73429600
 O 3.06512600 4.32023500 20.03153100
 H -0.00038300 8.00429100 18.71304900
 O 8.44611300 3.46717900 18.66944300
 O -3.50541400 6.15515500 18.66715000
 Cu -0.87623700 1.60069100 18.13111800
 Cu 2.31876800 1.65233800 18.19657700
 Cu -3.06480000 4.34259100 18.19502800
 Cu 0.30847900 4.28938200 18.13127900
 O 10.59647200 2.48445400 17.66077700
 O -1.35138300 5.17449600 17.66214700
 O -0.63022900 1.49756500 16.08509800
 O 0.55520000 4.18791400 16.08532800
 Cu 10.85250400 2.37253500 15.67383800
 Cu 0.99502100 2.37963100 15.55445000
 Cu 8.74552300 5.07022800 15.55557800
 Cu -1.09684000 5.06273800 15.67463000
 O 9.22792800 3.24316100 15.04895400
 O -2.72158800 5.93307700 15.04958100
 O 11.14868400 2.23347200 13.71434400
 O -0.80234900 4.92390200 13.71434700
 Cu 9.50173200 3.11281100 13.11617300
 Cu -0.34859000 3.11277900 13.11613900
 Cu 7.40098000 5.80331300 13.11611800
 Cu -2.44934300 5.80328300 13.11608300
 O 0.10519700 1.30176600 12.51791000
 O 1.28787900 3.99219100 12.51790700
 O 9.82018400 2.96311400 11.19644000
 O -2.13085300 5.65354000 11.19643700
 Cu 0.42368900 1.15202100 10.59826600
 Cu 3.70708400 1.15199100 10.59823200
 Cu -1.67706600 3.84252400 10.59820900
 Cu 1.60633300 3.84249400 10.59817400
 O -1.22330600 2.03140300 10.00000000
 O -0.04062100 4.72183400 10.00000300
 O 4.24078100 8.84640400 18.66776500
 O 0.69386100 0.77764800 18.66998200
 Cu -5.07619200 6.97648500 18.12873700
 Cu -1.88357100 7.03378900 18.19503300
 Cu -7.26892300 9.72356000 18.19667300
 Cu -3.89466100 9.66952300 18.12911600
 O 6.39827400 7.86365900 17.66138100
 O -5.55547700 10.55493500 17.66072800
 O -4.82896700 6.87910300 16.08426300
 O -3.64760000 9.56883300 16.08513300
 Cu 6.65361800 7.75227300 15.67367600
 Cu -3.20435800 7.76075300 15.55509000
 Cu 4.54223800 10.45074600 15.55407300
 Cu -5.29834300 10.44361200 15.67361600
 O 5.02989300 8.62341400 15.04959900
 O 1.47989500 0.55235300 15.04917000
 O 6.94719200 7.61432800 13.71434400
 O -5.00384000 10.30476000 13.71434700
 Cu 5.30023900 8.49366900 13.11617300
 Cu -4.55008200 8.49363700 13.11613900
 Cu 11.60247100 0.42245500 13.11611800
 Cu 1.75215100 0.42242500 13.11608300
 O -4.09629500 6.68262200 12.51791000
 O -2.91361300 9.37304900 12.51790700
 O 5.61869100 8.34397200 11.19644000
 O 2.07063800 0.27268200 11.19643700
 Cu -3.77780500 6.53288000 10.59826600
 Cu -0.49440800 6.53284900 10.59823200
 Cu -5.87855700 9.22338200 10.59820900
 Cu -2.59516000 9.22335200 10.59817400
 O -5.42479800 7.41226100 10.00000000
 O -4.24211400 10.10269100 10.00000300
 O 1.87989400 3.46753000 18.66837300
 O 3.06184600 6.15524300 18.66591100
 Cu 5.69326700 1.60078200 18.12978900
 Cu 8.88364900 1.65310100 18.19530700
 Cu 3.50418700 4.34207500 18.19572800
 Cu 6.87703100 4.28900700 18.13002400
 O 4.03229800 2.48407300 17.66087700
 O 5.21769400 5.17420700 17.66197100
 O 5.93795200 1.49764200 16.08581000
 O 7.12194400 4.18689300 16.08608100
 Cu 4.28814900 2.37299200 15.67353800
 Cu 7.56201300 2.37954800 15.55541800
 Cu 2.17940800 5.07075200 15.55469100
 Cu 5.47158000 5.06225900 15.67384800
 O 2.66288300 3.24292000 15.04932700
 O 3.84715300 5.93308900 15.04961600
 O 4.58182500 2.23347200 13.71434400
 O 5.76451000 4.92390200 13.71434700
 Cu 2.93487300 3.11281100 13.11617300
 Cu 6.21826900 3.11277900 13.11613900
 Cu 0.83412100 5.80331300 13.11611800
 Cu 4.11751800 5.80328300 13.11608300
 O 6.67205600 1.30176600 12.51791000
 O 7.85473900 3.99219100 12.51790700
 O 3.25332500 2.96311400 11.19644000
 O 4.43600700 5.65354000 11.19643700
 Cu 6.99054600 1.15202100 10.59826600
 Cu 10.27394300 1.15199100 10.59823200
 Cu 4.88979500 3.84252400 10.59820900
 Cu 8.17319200 3.84249400 10.59817400
 O 5.34355300 2.03140300 10.00000000
 O 6.52623800 4.72183400 10.00000300
 O -2.32538500 8.84660800 18.66875200
 O 7.26093300 0.77782100 18.67059600
 Cu 1.48993100 6.97812600 18.12889000
 Cu 4.68474700 7.03281600 18.19584100
 Cu -0.70344700 9.72481700 18.19523700
 Cu 2.66992700 9.67079900 18.12986900
 O -0.16978700 7.86507300 17.66082000
 O 1.00942400 10.55645000 17.65994200
 O 1.73786600 6.87975300 16.08345700
 O 2.91771300 9.56847800 16.08431700
 Cu 0.08638400 7.75388300 15.67398900
 Cu 3.36199000 7.76085100 15.55386000
 Cu -2.02312700 10.45101300 15.55545900
 Cu 1.26713800 10.44415800 15.67355300
 O -1.53754900 8.62441600 15.04967100
 O 8.04623600 0.55357300 15.04886400
 O 0.38033300 7.61432800 13.71434400
 O 1.56301800 10.30476000 13.71434700
 Cu -1.26661800 8.49366900 13.11617300
 Cu 2.01677700 8.49363700 13.11613900
 Cu 5.03561300 0.42245500 13.11611800
 Cu 8.31901000 0.42242500 13.11608300
 O 2.47056400 6.68262200 12.51791000
 O 3.65324600 9.37304900 12.51790700
 O -0.94816600 8.34397200 11.19644000
 O 8.63749900 0.27268200 11.19643700
 Cu 2.78905500 6.53288000 10.59826600
 Cu 6.07245100 6.53284900 10.59823200
 Cu 0.68830100 9.22338200 10.59820900
 Cu 3.97170000 9.22335200 10.59817400
 O 1.14206100 7.41226100 10.00000000
 O 2.32474600 10.10269100 10.00000300
 N 1.60895700 6.95408100 19.94146400
 H 4.05767600 4.65132800 20.53427500
 H 2.53771400 4.62965800 20.51368000
 N 1.85361400 6.14848000 20.90061000
 O 3.28460200 4.33110000 19.98857500
 H -0.00649200 7.98201300 18.70559900
K_POINTS {gamma}
 1 1 1 0 0 0
